65 83 52 19 66 60 70 
5 38 43 68 
45 88 7 6 55 
23 21 22 97 58 
95 64 85 94 56 
14 98 90 10 25 
2 81 96 
62 67 71 17 
59 99 9 13 
63 33 31 20 91 
69 11 87 74 93 
75 86 54 100 
42 39 36 44 41 37 35 
92 72 61 53 4 
82 15 16 78 24 
47 12 73 79 46 1 
27 28 30 26 89 80 
76 57 77 48 
51 84 50 32 
40 3 
29 34 
18 49 
8 

